c Optimised CNF encoding for 9x9 Sudoku
c Source: sudoku_9x9_001.txt
c Variables: 178  Clauses: 1247
c SIZE 9
c MAP 1 1 1 1
c MAP 2 1 1 2
c MAP 3 1 1 5
c MAP 4 1 2 3
c MAP 5 1 2 4
c MAP 6 1 3 1
c MAP 7 1 3 2
c MAP 8 1 3 4
c MAP 9 1 3 5
c MAP 10 1 4 1
c MAP 11 1 4 2
c MAP 12 1 4 3
c MAP 13 1 4 5
c MAP 14 1 4 7
c MAP 15 1 5 2
c MAP 16 1 5 3
c MAP 17 1 5 5
c MAP 18 1 5 7
c MAP 19 1 8 1
c MAP 20 1 8 4
c MAP 21 1 8 7
c MAP 22 2 1 1
c MAP 23 2 1 5
c MAP 24 2 8 1
c MAP 25 3 2 3
c MAP 26 3 2 4
c MAP 27 3 2 8
c MAP 28 3 3 1
c MAP 29 3 3 2
c MAP 30 3 3 4
c MAP 31 3 3 8
c MAP 32 3 4 1
c MAP 33 3 4 2
c MAP 34 3 4 3
c MAP 35 3 4 7
c MAP 36 3 5 2
c MAP 37 3 5 3
c MAP 38 3 5 7
c MAP 39 3 6 1
c MAP 40 3 6 3
c MAP 41 3 6 7
c MAP 42 3 8 1
c MAP 43 3 8 4
c MAP 44 3 8 7
c MAP 45 3 8 9
c MAP 46 3 9 1
c MAP 47 3 9 4
c MAP 48 3 9 7
c MAP 49 3 9 9
c MAP 50 4 1 1
c MAP 51 4 1 8
c MAP 52 4 1 9
c MAP 53 4 2 6
c MAP 54 4 2 8
c MAP 55 4 4 2
c MAP 56 4 4 5
c MAP 57 4 4 7
c MAP 58 4 4 9
c MAP 59 4 5 2
c MAP 60 4 5 5
c MAP 61 4 5 7
c MAP 62 4 5 9
c MAP 63 4 6 5
c MAP 64 4 6 7
c MAP 65 4 6 8
c MAP 66 4 8 2
c MAP 67 4 8 5
c MAP 68 4 8 7
c MAP 69 4 8 8
c MAP 70 4 8 9
c MAP 71 4 9 2
c MAP 72 4 9 5
c MAP 73 4 9 7
c MAP 74 4 9 9
c MAP 75 5 1 8
c MAP 76 5 1 9
c MAP 77 5 3 7
c MAP 78 5 3 8
c MAP 79 5 4 3
c MAP 80 5 4 4
c MAP 81 5 4 5
c MAP 82 5 4 7
c MAP 83 5 4 9
c MAP 84 5 5 3
c MAP 85 5 5 4
c MAP 86 5 5 5
c MAP 87 5 5 7
c MAP 88 5 5 9
c MAP 89 5 6 3
c MAP 90 5 6 5
c MAP 91 5 6 7
c MAP 92 5 6 8
c MAP 93 5 8 3
c MAP 94 5 8 5
c MAP 95 5 8 7
c MAP 96 5 8 8
c MAP 97 5 8 9
c MAP 98 6 3 7
c MAP 99 6 3 8
c MAP 100 6 6 3
c MAP 101 6 6 7
c MAP 102 6 6 8
c MAP 103 6 7 3
c MAP 104 6 7 8
c MAP 105 6 7 9
c MAP 106 6 8 2
c MAP 107 6 8 3
c MAP 108 6 8 7
c MAP 109 6 8 8
c MAP 110 6 8 9
c MAP 111 6 9 2
c MAP 112 6 9 7
c MAP 113 6 9 9
c MAP 114 7 3 2
c MAP 115 7 3 4
c MAP 116 7 3 5
c MAP 117 7 4 3
c MAP 118 7 4 4
c MAP 119 7 4 5
c MAP 120 7 4 9
c MAP 121 7 6 3
c MAP 122 7 6 5
c MAP 123 7 7 3
c MAP 124 7 7 9
c MAP 125 7 9 2
c MAP 126 7 9 4
c MAP 127 7 9 5
c MAP 128 7 9 9
c MAP 129 8 2 4
c MAP 130 8 2 8
c MAP 131 8 4 1
c MAP 132 8 4 4
c MAP 133 8 4 5
c MAP 134 8 4 7
c MAP 135 8 4 9
c MAP 136 8 5 4
c MAP 137 8 5 5
c MAP 138 8 5 7
c MAP 139 8 5 9
c MAP 140 8 7 8
c MAP 141 8 7 9
c MAP 142 8 8 1
c MAP 143 8 8 4
c MAP 144 8 8 5
c MAP 145 8 8 8
c MAP 146 8 8 9
c MAP 147 8 9 1
c MAP 148 8 9 4
c MAP 149 8 9 5
c MAP 150 8 9 9
c MAP 151 9 1 2
c MAP 152 9 1 5
c MAP 153 9 1 8
c MAP 154 9 3 2
c MAP 155 9 3 4
c MAP 156 9 3 5
c MAP 157 9 3 8
c MAP 158 9 4 1
c MAP 159 9 4 3
c MAP 160 9 4 4
c MAP 161 9 4 5
c MAP 162 9 5 3
c MAP 163 9 5 4
c MAP 164 9 5 5
c MAP 165 9 6 1
c MAP 166 9 6 3
c MAP 167 9 6 5
c MAP 168 9 6 6
c MAP 169 9 8 1
c MAP 170 9 8 2
c MAP 171 9 8 3
c MAP 172 9 8 4
c MAP 173 9 8 5
c MAP 174 9 8 8
c MAP 175 9 9 1
c MAP 176 9 9 2
c MAP 177 9 9 4
c MAP 178 9 9 5
c FIXED 1 6 9
c FIXED 1 7 6
c FIXED 1 9 8
c FIXED 2 2 7
c FIXED 2 3 9
c FIXED 2 4 8
c FIXED 2 5 6
c FIXED 2 6 4
c FIXED 2 7 2
c FIXED 2 9 3
c FIXED 3 1 6
c FIXED 3 7 5
c FIXED 4 3 3
c FIXED 4 7 4
c FIXED 5 2 2
c FIXED 5 7 1
c FIXED 5 9 6
c FIXED 6 1 4
c FIXED 6 2 5
c FIXED 6 4 6
c FIXED 6 5 1
c FIXED 7 1 7
c FIXED 7 2 1
c FIXED 7 5 8
c FIXED 7 8 6
c FIXED 8 1 3
c FIXED 8 3 6
c FIXED 8 6 2
c FIXED 9 2 9
c FIXED 9 7 7
p cnf 178 1247
1 2 3 0
4 5 0
6 7 8 9 0
10 11 12 13 14 0
15 16 17 18 0
19 20 21 0
22 23 0
24 0
25 26 27 0
28 29 30 31 0
32 33 34 35 0
36 37 38 0
39 40 41 0
42 43 44 45 0
46 47 48 49 0
50 51 52 0
53 54 0
55 56 57 58 0
59 60 61 62 0
63 64 65 0
66 67 68 69 70 0
71 72 73 74 0
75 76 0
77 78 0
79 80 81 82 83 0
84 85 86 87 88 0
89 90 91 92 0
93 94 95 96 97 0
98 99 0
100 101 102 0
103 104 105 0
106 107 108 109 110 0
111 112 113 0
114 115 116 0
117 118 119 120 0
121 122 0
123 124 0
125 126 127 128 0
129 130 0
131 132 133 134 135 0
136 137 138 139 0
140 141 0
142 143 144 145 146 0
147 148 149 150 0
151 152 153 0
154 155 156 157 0
158 159 160 161 0
162 163 164 0
165 166 167 168 0
169 170 171 172 173 174 0
175 176 177 178 0
-1 -2 0
-1 -3 0
-2 -3 0
-4 -5 0
-6 -7 0
-6 -8 0
-6 -9 0
-7 -8 0
-7 -9 0
-8 -9 0
-10 -11 0
-10 -12 0
-10 -13 0
-10 -14 0
-11 -12 0
-11 -13 0
-11 -14 0
-12 -13 0
-12 -14 0
-13 -14 0
-15 -16 0
-15 -17 0
-15 -18 0
-16 -17 0
-16 -18 0
-17 -18 0
-19 -20 0
-19 -21 0
-20 -21 0
-22 -23 0
-25 -26 0
-25 -27 0
-26 -27 0
-28 -29 0
-28 -30 0
-28 -31 0
-29 -30 0
-29 -31 0
-30 -31 0
-32 -33 0
-32 -34 0
-32 -35 0
-33 -34 0
-33 -35 0
-34 -35 0
-36 -37 0
-36 -38 0
-37 -38 0
-39 -40 0
-39 -41 0
-40 -41 0
-42 -43 0
-42 -44 0
-42 -45 0
-43 -44 0
-43 -45 0
-44 -45 0
-46 -47 0
-46 -48 0
-46 -49 0
-47 -48 0
-47 -49 0
-48 -49 0
-50 -51 0
-50 -52 0
-51 -52 0
-53 -54 0
-55 -56 0
-55 -57 0
-55 -58 0
-56 -57 0
-56 -58 0
-57 -58 0
-59 -60 0
-59 -61 0
-59 -62 0
-60 -61 0
-60 -62 0
-61 -62 0
-63 -64 0
-63 -65 0
-64 -65 0
-66 -67 0
-66 -68 0
-66 -69 0
-66 -70 0
-67 -68 0
-67 -69 0
-67 -70 0
-68 -69 0
-68 -70 0
-69 -70 0
-71 -72 0
-71 -73 0
-71 -74 0
-72 -73 0
-72 -74 0
-73 -74 0
-75 -76 0
-77 -78 0
-79 -80 0
-79 -81 0
-79 -82 0
-79 -83 0
-80 -81 0
-80 -82 0
-80 -83 0
-81 -82 0
-81 -83 0
-82 -83 0
-84 -85 0
-84 -86 0
-84 -87 0
-84 -88 0
-85 -86 0
-85 -87 0
-85 -88 0
-86 -87 0
-86 -88 0
-87 -88 0
-89 -90 0
-89 -91 0
-89 -92 0
-90 -91 0
-90 -92 0
-91 -92 0
-93 -94 0
-93 -95 0
-93 -96 0
-93 -97 0
-94 -95 0
-94 -96 0
-94 -97 0
-95 -96 0
-95 -97 0
-96 -97 0
-98 -99 0
-100 -101 0
-100 -102 0
-101 -102 0
-103 -104 0
-103 -105 0
-104 -105 0
-106 -107 0
-106 -108 0
-106 -109 0
-106 -110 0
-107 -108 0
-107 -109 0
-107 -110 0
-108 -109 0
-108 -110 0
-109 -110 0
-111 -112 0
-111 -113 0
-112 -113 0
-114 -115 0
-114 -116 0
-115 -116 0
-117 -118 0
-117 -119 0
-117 -120 0
-118 -119 0
-118 -120 0
-119 -120 0
-121 -122 0
-123 -124 0
-125 -126 0
-125 -127 0
-125 -128 0
-126 -127 0
-126 -128 0
-127 -128 0
-129 -130 0
-131 -132 0
-131 -133 0
-131 -134 0
-131 -135 0
-132 -133 0
-132 -134 0
-132 -135 0
-133 -134 0
-133 -135 0
-134 -135 0
-136 -137 0
-136 -138 0
-136 -139 0
-137 -138 0
-137 -139 0
-138 -139 0
-140 -141 0
-142 -143 0
-142 -144 0
-142 -145 0
-142 -146 0
-143 -144 0
-143 -145 0
-143 -146 0
-144 -145 0
-144 -146 0
-145 -146 0
-147 -148 0
-147 -149 0
-147 -150 0
-148 -149 0
-148 -150 0
-149 -150 0
-151 -152 0
-151 -153 0
-152 -153 0
-154 -155 0
-154 -156 0
-154 -157 0
-155 -156 0
-155 -157 0
-156 -157 0
-158 -159 0
-158 -160 0
-158 -161 0
-159 -160 0
-159 -161 0
-160 -161 0
-162 -163 0
-162 -164 0
-163 -164 0
-165 -166 0
-165 -167 0
-165 -168 0
-166 -167 0
-166 -168 0
-167 -168 0
-169 -170 0
-169 -171 0
-169 -172 0
-169 -173 0
-169 -174 0
-170 -171 0
-170 -172 0
-170 -173 0
-170 -174 0
-171 -172 0
-171 -173 0
-171 -174 0
-172 -173 0
-172 -174 0
-173 -174 0
-175 -176 0
-175 -177 0
-175 -178 0
-176 -177 0
-176 -178 0
-177 -178 0
1 6 10 19 0
2 7 11 15 0
4 12 16 0
5 8 20 0
3 9 13 17 0
14 18 21 0
22 24 0
23 0
28 32 39 42 46 0
29 33 36 0
25 34 37 40 0
26 30 43 47 0
35 38 41 44 48 0
27 31 0
45 49 0
50 0
55 59 66 71 0
56 60 63 67 72 0
53 0
57 61 64 68 73 0
51 54 65 69 0
52 58 62 70 74 0
79 84 89 93 0
80 85 0
81 86 90 94 0
77 82 87 91 95 0
75 78 92 96 0
76 83 88 97 0
106 111 0
100 103 107 0
98 101 108 112 0
99 102 104 109 0
105 110 113 0
114 125 0
117 121 123 0
115 118 126 0
116 119 122 127 0
120 124 128 0
131 142 147 0
129 132 136 143 148 0
133 137 144 149 0
134 138 0
130 140 145 0
135 139 141 146 150 0
158 165 169 175 0
151 154 170 176 0
159 162 166 171 0
155 160 163 172 177 0
152 156 161 164 167 173 178 0
168 0
153 157 174 0
-1 -6 0
-1 -10 0
-1 -19 0
-6 -10 0
-6 -19 0
-10 -19 0
-2 -7 0
-2 -11 0
-2 -15 0
-7 -11 0
-7 -15 0
-11 -15 0
-4 -12 0
-4 -16 0
-12 -16 0
-5 -8 0
-5 -20 0
-8 -20 0
-3 -9 0
-3 -13 0
-3 -17 0
-9 -13 0
-9 -17 0
-13 -17 0
-14 -18 0
-14 -21 0
-18 -21 0
-22 -24 0
-28 -32 0
-28 -39 0
-28 -42 0
-28 -46 0
-32 -39 0
-32 -42 0
-32 -46 0
-39 -42 0
-39 -46 0
-42 -46 0
-29 -33 0
-29 -36 0
-33 -36 0
-25 -34 0
-25 -37 0
-25 -40 0
-34 -37 0
-34 -40 0
-37 -40 0
-26 -30 0
-26 -43 0
-26 -47 0
-30 -43 0
-30 -47 0
-43 -47 0
-35 -38 0
-35 -41 0
-35 -44 0
-35 -48 0
-38 -41 0
-38 -44 0
-38 -48 0
-41 -44 0
-41 -48 0
-44 -48 0
-27 -31 0
-45 -49 0
-55 -59 0
-55 -66 0
-55 -71 0
-59 -66 0
-59 -71 0
-66 -71 0
-56 -60 0
-56 -63 0
-56 -67 0
-56 -72 0
-60 -63 0
-60 -67 0
-60 -72 0
-63 -67 0
-63 -72 0
-67 -72 0
-57 -61 0
-57 -64 0
-57 -68 0
-57 -73 0
-61 -64 0
-61 -68 0
-61 -73 0
-64 -68 0
-64 -73 0
-68 -73 0
-51 -54 0
-51 -65 0
-51 -69 0
-54 -65 0
-54 -69 0
-65 -69 0
-52 -58 0
-52 -62 0
-52 -70 0
-52 -74 0
-58 -62 0
-58 -70 0
-58 -74 0
-62 -70 0
-62 -74 0
-70 -74 0
-79 -84 0
-79 -89 0
-79 -93 0
-84 -89 0
-84 -93 0
-89 -93 0
-80 -85 0
-81 -86 0
-81 -90 0
-81 -94 0
-86 -90 0
-86 -94 0
-90 -94 0
-77 -82 0
-77 -87 0
-77 -91 0
-77 -95 0
-82 -87 0
-82 -91 0
-82 -95 0
-87 -91 0
-87 -95 0
-91 -95 0
-75 -78 0
-75 -92 0
-75 -96 0
-78 -92 0
-78 -96 0
-92 -96 0
-76 -83 0
-76 -88 0
-76 -97 0
-83 -88 0
-83 -97 0
-88 -97 0
-106 -111 0
-100 -103 0
-100 -107 0
-103 -107 0
-98 -101 0
-98 -108 0
-98 -112 0
-101 -108 0
-101 -112 0
-108 -112 0
-99 -102 0
-99 -104 0
-99 -109 0
-102 -104 0
-102 -109 0
-104 -109 0
-105 -110 0
-105 -113 0
-110 -113 0
-114 -125 0
-117 -121 0
-117 -123 0
-121 -123 0
-115 -118 0
-115 -126 0
-118 -126 0
-116 -119 0
-116 -122 0
-116 -127 0
-119 -122 0
-119 -127 0
-122 -127 0
-120 -124 0
-120 -128 0
-124 -128 0
-131 -142 0
-131 -147 0
-142 -147 0
-129 -132 0
-129 -136 0
-129 -143 0
-129 -148 0
-132 -136 0
-132 -143 0
-132 -148 0
-136 -143 0
-136 -148 0
-143 -148 0
-133 -137 0
-133 -144 0
-133 -149 0
-137 -144 0
-137 -149 0
-144 -149 0
-134 -138 0
-130 -140 0
-130 -145 0
-140 -145 0
-135 -139 0
-135 -141 0
-135 -146 0
-135 -150 0
-139 -141 0
-139 -146 0
-139 -150 0
-141 -146 0
-141 -150 0
-146 -150 0
-158 -165 0
-158 -169 0
-158 -175 0
-165 -169 0
-165 -175 0
-169 -175 0
-151 -154 0
-151 -170 0
-151 -176 0
-154 -170 0
-154 -176 0
-170 -176 0
-159 -162 0
-159 -166 0
-159 -171 0
-162 -166 0
-162 -171 0
-166 -171 0
-155 -160 0
-155 -163 0
-155 -172 0
-155 -177 0
-160 -163 0
-160 -172 0
-160 -177 0
-163 -172 0
-163 -177 0
-172 -177 0
-152 -156 0
-152 -161 0
-152 -164 0
-152 -167 0
-152 -173 0
-152 -178 0
-156 -161 0
-156 -164 0
-156 -167 0
-156 -173 0
-156 -178 0
-161 -164 0
-161 -167 0
-161 -173 0
-161 -178 0
-164 -167 0
-164 -173 0
-164 -178 0
-167 -173 0
-167 -178 0
-173 -178 0
-153 -157 0
-153 -174 0
-157 -174 0
1 22 50 0
2 151 0
3 23 152 0
51 75 153 0
52 76 0
4 25 0
5 26 129 0
53 0
27 54 130 0
6 28 0
7 29 114 154 0
8 30 115 155 0
9 116 156 0
77 98 0
31 78 99 157 0
10 32 131 158 0
11 33 55 0
12 34 79 117 159 0
80 118 132 160 0
13 56 81 119 133 161 0
14 35 57 82 134 0
58 83 120 135 0
15 36 59 0
16 37 84 162 0
85 136 163 0
17 60 86 137 164 0
18 38 61 87 138 0
62 88 139 0
39 165 0
40 89 100 121 166 0
63 90 122 167 0
168 0
41 64 91 101 0
65 92 102 0
103 123 0
104 140 0
105 124 141 0
19 24 42 142 169 0
66 106 170 0
93 107 171 0
20 43 143 172 0
67 94 144 173 0
21 44 68 95 108 0
69 96 109 145 174 0
45 70 97 110 146 0
46 147 175 0
71 111 125 176 0
47 126 148 177 0
72 127 149 178 0
48 73 112 0
49 74 113 128 150 0
-1 -22 0
-1 -50 0
-22 -50 0
-2 -151 0
-3 -23 0
-3 -152 0
-23 -152 0
-51 -75 0
-51 -153 0
-75 -153 0
-52 -76 0
-4 -25 0
-5 -26 0
-5 -129 0
-26 -129 0
-27 -54 0
-27 -130 0
-54 -130 0
-6 -28 0
-7 -29 0
-7 -114 0
-7 -154 0
-29 -114 0
-29 -154 0
-114 -154 0
-8 -30 0
-8 -115 0
-8 -155 0
-30 -115 0
-30 -155 0
-115 -155 0
-9 -116 0
-9 -156 0
-116 -156 0
-77 -98 0
-31 -78 0
-31 -99 0
-31 -157 0
-78 -99 0
-78 -157 0
-99 -157 0
-10 -32 0
-10 -131 0
-10 -158 0
-32 -131 0
-32 -158 0
-131 -158 0
-11 -33 0
-11 -55 0
-33 -55 0
-12 -34 0
-12 -79 0
-12 -117 0
-12 -159 0
-34 -79 0
-34 -117 0
-34 -159 0
-79 -117 0
-79 -159 0
-117 -159 0
-80 -118 0
-80 -132 0
-80 -160 0
-118 -132 0
-118 -160 0
-132 -160 0
-13 -56 0
-13 -81 0
-13 -119 0
-13 -133 0
-13 -161 0
-56 -81 0
-56 -119 0
-56 -133 0
-56 -161 0
-81 -119 0
-81 -133 0
-81 -161 0
-119 -133 0
-119 -161 0
-133 -161 0
-14 -35 0
-14 -57 0
-14 -82 0
-14 -134 0
-35 -57 0
-35 -82 0
-35 -134 0
-57 -82 0
-57 -134 0
-82 -134 0
-58 -83 0
-58 -120 0
-58 -135 0
-83 -120 0
-83 -135 0
-120 -135 0
-15 -36 0
-15 -59 0
-36 -59 0
-16 -37 0
-16 -84 0
-16 -162 0
-37 -84 0
-37 -162 0
-84 -162 0
-85 -136 0
-85 -163 0
-136 -163 0
-17 -60 0
-17 -86 0
-17 -137 0
-17 -164 0
-60 -86 0
-60 -137 0
-60 -164 0
-86 -137 0
-86 -164 0
-137 -164 0
-18 -38 0
-18 -61 0
-18 -87 0
-18 -138 0
-38 -61 0
-38 -87 0
-38 -138 0
-61 -87 0
-61 -138 0
-87 -138 0
-62 -88 0
-62 -139 0
-88 -139 0
-39 -165 0
-40 -89 0
-40 -100 0
-40 -121 0
-40 -166 0
-89 -100 0
-89 -121 0
-89 -166 0
-100 -121 0
-100 -166 0
-121 -166 0
-63 -90 0
-63 -122 0
-63 -167 0
-90 -122 0
-90 -167 0
-122 -167 0
-41 -64 0
-41 -91 0
-41 -101 0
-64 -91 0
-64 -101 0
-91 -101 0
-65 -92 0
-65 -102 0
-92 -102 0
-103 -123 0
-104 -140 0
-105 -124 0
-105 -141 0
-124 -141 0
-19 -24 0
-19 -42 0
-19 -142 0
-19 -169 0
-24 -42 0
-24 -142 0
-24 -169 0
-42 -142 0
-42 -169 0
-142 -169 0
-66 -106 0
-66 -170 0
-106 -170 0
-93 -107 0
-93 -171 0
-107 -171 0
-20 -43 0
-20 -143 0
-20 -172 0
-43 -143 0
-43 -172 0
-143 -172 0
-67 -94 0
-67 -144 0
-67 -173 0
-94 -144 0
-94 -173 0
-144 -173 0
-21 -44 0
-21 -68 0
-21 -95 0
-21 -108 0
-44 -68 0
-44 -95 0
-44 -108 0
-68 -95 0
-68 -108 0
-95 -108 0
-69 -96 0
-69 -109 0
-69 -145 0
-69 -174 0
-96 -109 0
-96 -145 0
-96 -174 0
-109 -145 0
-109 -174 0
-145 -174 0
-45 -70 0
-45 -97 0
-45 -110 0
-45 -146 0
-70 -97 0
-70 -110 0
-70 -146 0
-97 -110 0
-97 -146 0
-110 -146 0
-46 -147 0
-46 -175 0
-147 -175 0
-71 -111 0
-71 -125 0
-71 -176 0
-111 -125 0
-111 -176 0
-125 -176 0
-47 -126 0
-47 -148 0
-47 -177 0
-126 -148 0
-126 -177 0
-148 -177 0
-72 -127 0
-72 -149 0
-72 -178 0
-127 -149 0
-127 -178 0
-149 -178 0
-48 -73 0
-48 -112 0
-73 -112 0
-49 -74 0
-49 -113 0
-49 -128 0
-49 -150 0
-74 -113 0
-74 -128 0
-74 -150 0
-113 -128 0
-113 -150 0
-128 -150 0
1 6 22 28 0
2 7 29 0
4 25 0
5 8 26 30 0
3 9 23 0
27 31 0
10 32 39 0
11 15 33 36 0
12 16 34 37 40 0
13 17 0
14 18 35 38 41 0
19 24 42 46 0
20 43 47 0
21 44 48 0
45 49 0
50 0
53 0
77 98 0
51 54 75 78 99 0
52 76 0
55 59 0
79 84 89 100 0
80 85 0
56 60 63 81 86 90 0
57 61 64 82 87 91 101 0
65 92 102 0
58 62 83 88 0
66 71 106 111 0
93 103 107 0
67 72 94 0
68 73 95 108 112 0
69 96 104 109 0
70 74 97 105 110 113 0
114 151 154 0
115 129 155 0
116 152 156 0
130 153 157 0
131 158 165 0
117 121 159 162 166 0
118 132 136 160 163 0
119 122 133 137 161 164 167 0
168 0
134 138 0
120 135 139 0
142 147 169 175 0
125 170 176 0
123 171 0
126 143 148 172 177 0
127 144 149 173 178 0
140 145 174 0
124 128 141 146 150 0
-1 -6 0
-1 -22 0
-1 -28 0
-6 -22 0
-6 -28 0
-22 -28 0
-2 -7 0
-2 -29 0
-7 -29 0
-4 -25 0
-5 -8 0
-5 -26 0
-5 -30 0
-8 -26 0
-8 -30 0
-26 -30 0
-3 -9 0
-3 -23 0
-9 -23 0
-27 -31 0
-10 -32 0
-10 -39 0
-32 -39 0
-11 -15 0
-11 -33 0
-11 -36 0
-15 -33 0
-15 -36 0
-33 -36 0
-12 -16 0
-12 -34 0
-12 -37 0
-12 -40 0
-16 -34 0
-16 -37 0
-16 -40 0
-34 -37 0
-34 -40 0
-37 -40 0
-13 -17 0
-14 -18 0
-14 -35 0
-14 -38 0
-14 -41 0
-18 -35 0
-18 -38 0
-18 -41 0
-35 -38 0
-35 -41 0
-38 -41 0
-19 -24 0
-19 -42 0
-19 -46 0
-24 -42 0
-24 -46 0
-42 -46 0
-20 -43 0
-20 -47 0
-43 -47 0
-21 -44 0
-21 -48 0
-44 -48 0
-45 -49 0
-77 -98 0
-51 -54 0
-51 -75 0
-51 -78 0
-51 -99 0
-54 -75 0
-54 -78 0
-54 -99 0
-75 -78 0
-75 -99 0
-78 -99 0
-52 -76 0
-55 -59 0
-79 -84 0
-79 -89 0
-79 -100 0
-84 -89 0
-84 -100 0
-89 -100 0
-80 -85 0
-56 -60 0
-56 -63 0
-56 -81 0
-56 -86 0
-56 -90 0
-60 -63 0
-60 -81 0
-60 -86 0
-60 -90 0
-63 -81 0
-63 -86 0
-63 -90 0
-81 -86 0
-81 -90 0
-86 -90 0
-57 -61 0
-57 -64 0
-57 -82 0
-57 -87 0
-57 -91 0
-57 -101 0
-61 -64 0
-61 -82 0
-61 -87 0
-61 -91 0
-61 -101 0
-64 -82 0
-64 -87 0
-64 -91 0
-64 -101 0
-82 -87 0
-82 -91 0
-82 -101 0
-87 -91 0
-87 -101 0
-91 -101 0
-65 -92 0
-65 -102 0
-92 -102 0
-58 -62 0
-58 -83 0
-58 -88 0
-62 -83 0
-62 -88 0
-83 -88 0
-66 -71 0
-66 -106 0
-66 -111 0
-71 -106 0
-71 -111 0
-106 -111 0
-93 -103 0
-93 -107 0
-103 -107 0
-67 -72 0
-67 -94 0
-72 -94 0
-68 -73 0
-68 -95 0
-68 -108 0
-68 -112 0
-73 -95 0
-73 -108 0
-73 -112 0
-95 -108 0
-95 -112 0
-108 -112 0
-69 -96 0
-69 -104 0
-69 -109 0
-96 -104 0
-96 -109 0
-104 -109 0
-70 -74 0
-70 -97 0
-70 -105 0
-70 -110 0
-70 -113 0
-74 -97 0
-74 -105 0
-74 -110 0
-74 -113 0
-97 -105 0
-97 -110 0
-97 -113 0
-105 -110 0
-105 -113 0
-110 -113 0
-114 -151 0
-114 -154 0
-151 -154 0
-115 -129 0
-115 -155 0
-129 -155 0
-116 -152 0
-116 -156 0
-152 -156 0
-130 -153 0
-130 -157 0
-153 -157 0
-131 -158 0
-131 -165 0
-158 -165 0
-117 -121 0
-117 -159 0
-117 -162 0
-117 -166 0
-121 -159 0
-121 -162 0
-121 -166 0
-159 -162 0
-159 -166 0
-162 -166 0
-118 -132 0
-118 -136 0
-118 -160 0
-118 -163 0
-132 -136 0
-132 -160 0
-132 -163 0
-136 -160 0
-136 -163 0
-160 -163 0
-119 -122 0
-119 -133 0
-119 -137 0
-119 -161 0
-119 -164 0
-119 -167 0
-122 -133 0
-122 -137 0
-122 -161 0
-122 -164 0
-122 -167 0
-133 -137 0
-133 -161 0
-133 -164 0
-133 -167 0
-137 -161 0
-137 -164 0
-137 -167 0
-161 -164 0
-161 -167 0
-164 -167 0
-134 -138 0
-120 -135 0
-120 -139 0
-135 -139 0
-142 -147 0
-142 -169 0
-142 -175 0
-147 -169 0
-147 -175 0
-169 -175 0
-125 -170 0
-125 -176 0
-170 -176 0
-123 -171 0
-126 -143 0
-126 -148 0
-126 -172 0
-126 -177 0
-143 -148 0
-143 -172 0
-143 -177 0
-148 -172 0
-148 -177 0
-172 -177 0
-127 -144 0
-127 -149 0
-127 -173 0
-127 -178 0
-144 -149 0
-144 -173 0
-144 -178 0
-149 -173 0
-149 -178 0
-173 -178 0
-140 -145 0
-140 -174 0
-145 -174 0
-124 -128 0
-124 -141 0
-124 -146 0
-124 -150 0
-128 -141 0
-128 -146 0
-128 -150 0
-141 -146 0
-141 -150 0
-146 -150 0
