c Optimised CNF encoding for 16x16 Sudoku
c Source: sudoku_16x16_03.txt
c Variables: 79  Clauses: 333
c SIZE 16
c MAP 1 1 3 4
c MAP 2 1 3 5
c MAP 3 1 8 11
c MAP 4 1 8 12
c MAP 5 1 10 5
c MAP 6 1 14 12
c MAP 7 1 16 6
c MAP 8 2 3 5
c MAP 9 2 8 12
c MAP 10 2 9 2
c MAP 11 3 4 1
c MAP 12 3 10 3
c MAP 13 3 10 13
c MAP 14 3 11 3
c MAP 15 4 2 12
c MAP 16 4 3 13
c MAP 17 4 7 8
c MAP 18 4 7 11
c MAP 19 4 9 15
c MAP 20 4 12 11
c MAP 21 4 12 15
c MAP 22 5 4 5
c MAP 23 5 7 5
c MAP 24 5 7 13
c MAP 25 5 13 9
c MAP 26 6 5 14
c MAP 27 6 7 5
c MAP 28 6 12 16
c MAP 29 7 6 4
c MAP 30 7 6 10
c MAP 31 7 7 4
c MAP 32 7 7 10
c MAP 33 7 11 9
c MAP 34 7 16 7
c MAP 35 8 2 3
c MAP 36 8 4 4
c MAP 37 8 15 6
c MAP 38 9 5 7
c MAP 39 9 6 1
c MAP 40 9 9 16
c MAP 41 10 12 9
c MAP 42 10 14 5
c MAP 43 10 14 12
c MAP 44 10 15 12
c MAP 45 11 15 11
c MAP 46 12 4 6
c MAP 47 13 1 4
c MAP 48 13 10 16
c MAP 49 14 5 8
c MAP 50 14 5 16
c MAP 51 14 6 5
c MAP 52 14 6 10
c MAP 53 14 10 3
c MAP 54 14 10 16
c MAP 55 14 11 3
c MAP 56 14 11 10
c MAP 57 14 15 8
c MAP 58 14 15 16
c MAP 59 15 2 6
c MAP 60 15 5 8
c MAP 61 15 5 16
c MAP 62 15 6 4
c MAP 63 15 7 4
c MAP 64 15 7 8
c MAP 65 15 7 11
c MAP 66 15 12 15
c MAP 67 15 12 16
c MAP 68 15 14 14
c MAP 69 15 15 8
c MAP 70 15 15 16
c MAP 71 16 3 4
c MAP 72 16 3 16
c MAP 73 16 7 4
c MAP 74 16 7 10
c MAP 75 16 9 2
c MAP 76 16 9 4
c MAP 77 16 9 16
c MAP 78 16 12 2
c MAP 79 16 12 16
c FIXED 1 1 2
c FIXED 1 2 10
c FIXED 1 4 8
c FIXED 1 5 9
c FIXED 1 6 15
c FIXED 1 7 1
c FIXED 1 9 14
c FIXED 1 11 16
c FIXED 1 12 7
c FIXED 1 13 3
c FIXED 1 15 13
c FIXED 2 1 14
c FIXED 2 2 7
c FIXED 2 4 16
c FIXED 2 5 13
c FIXED 2 6 6
c FIXED 2 7 3
c FIXED 2 10 4
c FIXED 2 11 8
c FIXED 2 12 10
c FIXED 2 13 1
c FIXED 2 14 11
c FIXED 2 15 9
c FIXED 2 16 15
c FIXED 3 1 15
c FIXED 3 2 11
c FIXED 3 3 9
c FIXED 3 5 5
c FIXED 3 6 14
c FIXED 3 7 16
c FIXED 3 8 7
c FIXED 3 9 6
c FIXED 3 12 12
c FIXED 3 13 8
c FIXED 3 14 10
c FIXED 3 15 4
c FIXED 3 16 2
c FIXED 4 1 6
c FIXED 4 4 3
c FIXED 4 5 4
c FIXED 4 6 2
c FIXED 4 8 10
c FIXED 4 10 9
c FIXED 4 11 1
c FIXED 4 13 16
c FIXED 4 14 7
c FIXED 4 15 5
c FIXED 4 16 14
c FIXED 5 1 7
c FIXED 5 2 1
c FIXED 5 3 14
c FIXED 5 5 6
c FIXED 5 6 12
c FIXED 5 8 16
c FIXED 5 9 10
c FIXED 5 10 2
c FIXED 5 11 4
c FIXED 5 12 3
c FIXED 5 14 8
c FIXED 5 15 15
c FIXED 5 16 11
c FIXED 6 1 11
c FIXED 6 2 8
c FIXED 6 3 15
c FIXED 6 4 9
c FIXED 6 6 7
c FIXED 6 8 1
c FIXED 6 9 12
c FIXED 6 10 6
c FIXED 6 11 13
c FIXED 6 13 4
c FIXED 6 14 3
c FIXED 6 15 2
c FIXED 6 16 10
c FIXED 7 1 12
c FIXED 7 2 16
c FIXED 7 3 6
c FIXED 7 4 13
c FIXED 7 5 2
c FIXED 7 8 3
c FIXED 7 9 11
c FIXED 7 10 15
c FIXED 7 12 8
c FIXED 7 13 5
c FIXED 7 14 1
c FIXED 7 15 14
c FIXED 8 1 10
c FIXED 8 3 2
c FIXED 8 5 15
c FIXED 8 6 11
c FIXED 8 7 9
c FIXED 8 8 8
c FIXED 8 9 7
c FIXED 8 10 14
c FIXED 8 11 5
c FIXED 8 12 1
c FIXED 8 13 13
c FIXED 8 14 16
c FIXED 8 16 12
c FIXED 9 1 8
c FIXED 9 2 4
c FIXED 9 3 11
c FIXED 9 4 15
c FIXED 9 7 14
c FIXED 9 8 9
c FIXED 9 10 12
c FIXED 9 11 6
c FIXED 9 12 5
c FIXED 9 13 2
c FIXED 9 14 13
c FIXED 9 15 10
c FIXED 9 16 3
c FIXED 10 1 3
c FIXED 10 2 13
c FIXED 10 3 10
c FIXED 10 4 2
c FIXED 10 5 11
c FIXED 10 6 8
c FIXED 10 7 15
c FIXED 10 8 4
c FIXED 10 9 1
c FIXED 10 10 7
c FIXED 10 11 14
c FIXED 10 13 6
c FIXED 10 16 16
c FIXED 11 1 1
c FIXED 11 2 9
c FIXED 11 3 7
c FIXED 11 4 14
c FIXED 11 5 12
c FIXED 11 6 16
c FIXED 11 7 6
c FIXED 11 8 5
c FIXED 11 9 3
c FIXED 11 10 10
c FIXED 11 11 2
c FIXED 11 12 13
c FIXED 11 13 15
c FIXED 11 14 4
c FIXED 11 16 8
c FIXED 12 1 16
c FIXED 12 2 5
c FIXED 12 3 12
c FIXED 12 5 10
c FIXED 12 6 3
c FIXED 12 7 2
c FIXED 12 8 13
c FIXED 12 9 8
c FIXED 12 10 11
c FIXED 12 11 15
c FIXED 12 12 4
c FIXED 12 13 14
c FIXED 12 14 9
c FIXED 12 15 7
c FIXED 12 16 1
c FIXED 13 2 2
c FIXED 13 3 8
c FIXED 13 4 11
c FIXED 13 5 1
c FIXED 13 6 9
c FIXED 13 7 7
c FIXED 13 8 15
c FIXED 13 9 5
c FIXED 13 11 12
c FIXED 13 12 14
c FIXED 13 13 10
c FIXED 13 14 6
c FIXED 13 15 3
c FIXED 13 16 13
c FIXED 14 1 9
c FIXED 14 2 15
c FIXED 14 3 1
c FIXED 14 4 7
c FIXED 14 7 12
c FIXED 14 8 14
c FIXED 14 9 13
c FIXED 14 12 6
c FIXED 14 13 11
c FIXED 14 14 2
c FIXED 14 16 4
c FIXED 15 1 13
c FIXED 15 3 3
c FIXED 15 4 10
c FIXED 15 8 2
c FIXED 15 9 9
c FIXED 15 10 1
c FIXED 15 11 7
c FIXED 15 13 12
c FIXED 15 16 5
c FIXED 16 1 5
c FIXED 16 2 14
c FIXED 16 4 12
c FIXED 16 5 3
c FIXED 16 6 13
c FIXED 16 8 6
c FIXED 16 10 8
c FIXED 16 11 11
c FIXED 16 13 7
c FIXED 16 14 15
c FIXED 16 15 1
c FIXED 16 16 9
p cnf 79 333
1 2 0
3 4 0
5 0
6 0
7 0
8 0
9 0
10 0
11 0
12 13 0
14 0
15 0
16 0
17 18 0
19 0
20 21 0
22 0
23 24 0
25 0
26 0
27 0
28 0
29 30 0
31 32 0
33 0
34 0
35 0
36 0
37 0
38 0
39 0
40 0
41 0
42 43 0
44 0
45 0
46 0
47 0
48 0
49 50 0
51 52 0
53 54 0
55 56 0
57 58 0
59 0
60 61 0
62 0
63 64 65 0
66 67 0
68 0
69 70 0
71 72 0
73 74 0
75 76 77 0
78 79 0
-1 -2 0
-3 -4 0
-12 -13 0
-17 -18 0
-20 -21 0
-23 -24 0
-29 -30 0
-31 -32 0
-42 -43 0
-49 -50 0
-51 -52 0
-53 -54 0
-55 -56 0
-57 -58 0
-60 -61 0
-63 -64 0
-63 -65 0
-64 -65 0
-66 -67 0
-69 -70 0
-71 -72 0
-73 -74 0
-75 -76 0
-75 -77 0
-76 -77 0
-78 -79 0
1 0
2 5 0
7 0
3 0
4 6 0
10 0
8 0
9 0
11 0
12 14 0
13 0
17 0
18 20 0
15 0
16 0
19 21 0
22 23 0
25 0
24 0
27 0
26 0
28 0
29 31 0
34 0
33 0
30 32 0
35 0
36 0
37 0
39 0
38 0
40 0
42 0
41 0
43 44 0
45 0
46 0
47 0
48 0
53 55 0
51 0
49 57 0
52 56 0
50 54 58 0
62 63 0
59 0
60 64 69 0
65 0
68 0
66 0
61 67 70 0
75 78 0
71 73 76 0
74 0
72 77 79 0
-2 -5 0
-4 -6 0
-12 -14 0
-18 -20 0
-19 -21 0
-22 -23 0
-29 -31 0
-30 -32 0
-43 -44 0
-53 -55 0
-49 -57 0
-52 -56 0
-50 -54 0
-50 -58 0
-54 -58 0
-62 -63 0
-60 -64 0
-60 -69 0
-64 -69 0
-61 -67 0
-61 -70 0
-67 -70 0
-75 -78 0
-71 -73 0
-71 -76 0
-73 -76 0
-72 -77 0
-72 -79 0
-77 -79 0
47 0
35 0
59 0
15 0
1 71 0
2 8 0
16 0
72 0
11 0
36 0
22 0
46 0
38 0
49 60 0
26 0
50 61 0
39 0
29 62 0
51 0
30 52 0
31 63 73 0
23 27 0
17 64 0
32 74 0
18 65 0
24 0
3 0
4 9 0
10 75 0
76 0
19 0
40 77 0
12 53 0
5 0
13 0
48 54 0
14 55 0
33 0
56 0
78 0
41 0
20 0
21 66 0
28 67 79 0
25 0
42 0
6 43 0
68 0
37 0
57 69 0
45 0
44 0
58 70 0
7 0
34 0
-1 -71 0
-2 -8 0
-49 -60 0
-50 -61 0
-29 -62 0
-30 -52 0
-31 -63 0
-31 -73 0
-63 -73 0
-23 -27 0
-17 -64 0
-32 -74 0
-18 -65 0
-4 -9 0
-10 -75 0
-40 -77 0
-12 -53 0
-48 -54 0
-14 -55 0
-21 -66 0
-28 -67 0
-28 -79 0
-67 -79 0
-6 -43 0
-57 -69 0
-58 -70 0
11 0
1 0
2 8 0
15 0
16 0
17 0
3 18 0
4 9 0
10 0
12 14 0
5 0
20 0
13 0
19 21 0
7 0
6 0
35 0
36 0
22 0
29 31 0
23 27 0
30 32 0
24 0
26 0
33 0
28 0
37 0
34 0
25 0
46 0
39 0
38 0
41 0
40 0
42 0
45 0
43 44 0
47 71 0
59 0
72 0
62 63 73 0
51 0
49 60 64 0
52 74 0
65 0
50 61 0
75 78 0
53 55 0
76 0
56 0
66 0
48 54 67 77 79 0
57 69 0
68 0
58 70 0
-2 -8 0
-3 -18 0
-4 -9 0
-12 -14 0
-19 -21 0
-29 -31 0
-23 -27 0
-30 -32 0
-43 -44 0
-47 -71 0
-62 -63 0
-62 -73 0
-63 -73 0
-49 -60 0
-49 -64 0
-60 -64 0
-52 -74 0
-50 -61 0
-75 -78 0
-53 -55 0
-48 -54 0
-48 -67 0
-48 -77 0
-48 -79 0
-54 -67 0
-54 -77 0
-54 -79 0
-67 -77 0
-67 -79 0
-77 -79 0
-57 -69 0
-58 -70 0
